n_machines = 5;
n_resources = 8;
n_jobs = 80;
horizon = 3751;
LB = 750;
n_jobs_per_resource = [10, 10, 10, 10, 10, 10, 10, 10];
duration = [29, 17, 10, 49, 85, 4, 40, 38, 16, 83, 26, 13, 6, 99, 51, 91, 99, 31, 16, 60, 66, 97, 22, 60, 72, 21, 12, 25, 87, 75, 49, 31, 21, 45, 99, 96, 56, 11, 90, 5, 19, 8, 80, 21, 58, 34, 77, 97, 61, 9, 75, 53, 7, 57, 32, 59, 18, 71, 25, 86, 30, 63, 35, 98, 14, 71, 9, 39, 12, 3, 88, 52, 41, 92, 68, 75, 6, 15, 44, 46]